# LAMMPS Input File (License CC BY 4.0)
# By Simon Gravelle, Jacob R. Gissinger, and Axel Kohlmeyer
# The DOI will be added upon publication
# Find more on GitHub: https://github.com/lammpstutorials

# 1) Initialization
units lj
dimension 3
atom_style atomic
boundary p p p
# 2) System definition
# 3) Settings
# 4) Visualization
# 5) Run
